Traveling Salesman Problem/TSP_generados/Aleatorio1621103260_6.tsp
NAME: Aleatorio1621103260_6.tsp
COMMENT: Randomly generated scenario
TYPE: TSP
DIMENSION: 6
EDGE_WEIGHT_TYPE: ATT
NODE_COORD_SECTION
1 35.11 39.18
2 20.52 4.96
3 39.4 45.74
4 39.41 38.88
5 39.45 1.03
6 11.22 5.65
