Traveling Salesman Problem/TSP_generados/Aleatorio1621103260_6.opt.tour
NAME: Aleatorio1621103260_6.opt.tour
COMMENT: Optimal solution for Aleatorio1621103260_6 (122.3777474694557)
TYPE: TOUR
DIMENSION: 6
TOUR_SECTION
1 3 4 5 2 6
-1
EOF
